InboundTrucks  = 50;
OutboundTrucks = 50;
InboundDoors   = 15;
OutboundDoors  = 15;
ReleaseTime    = [30,75,69,16,47,117,77,60,80,74,8,77,1,116,107,60,33,70,29,24,91,60,69,107,70,60,50,81,110,19,29,81,19,111,118,66,49,94,1,85,99,8,20,97,75,5,38,99,3,105];
UnloadTime     = [25,27,21,17,33,24,24,27,24,22,10,32,20,12,25,26,24,26,12,19,20,28,26,32,31,32,11,30,17,31,27,27,11,20,17,31,27,27,10,14,22,20,11,27,17,32,34,22,11,18];
LoadTime       = [17,9,13,17,18,11,11,13,19,11,9,9,13,10,5,17,11,15,19,16,9,18,17,8,11,6,18,10,13,12,7,19,18,18,15,17,9,5,19,5,6,15,10,12,17,17,20,5,11,19];
TransferTime   = [| 6,0,0,0,0,0,0,0,0,5,0,0,0,0,0,8,0,0,4,0,3,0,0,0,0,4,0,8,0,0,0,0,5,0,0,0,0,0,5,0,0,0,0,0,0,0,0,0,0,0 | 0,0,0,0,7,0,0,0,0,0,4,0,0,0,0,0,6,6,0,0,0,0,5,0,0,0,0,0,4,3,3,0,0,6,4,6,0,0,0,0,8,4,0,0,3,0,0,0,0,7 | 0,0,4,0,0,0,0,0,0,0,0,0,0,0,0,0,6,0,0,0,4,0,0,2,0,2,0,8,0,0,0,2,6,0,4,3,0,0,0,3,0,6,2,0,2,0,2,0,0,0 | 0,0,4,8,0,3,6,0,2,0,0,0,0,0,0,3,0,0,0,8,2,0,0,0,0,0,0,0,0,0,0,0,0,3,0,0,6,0,0,0,0,2,0,6,0,7,0,0,2,0 | 2,0,0,0,0,0,0,0,0,0,0,0,0,0,0,0,0,0,0,0,7,2,0,0,0,0,0,8,4,0,7,8,4,0,0,0,4,2,8,0,5,8,0,0,0,0,0,0,0,0 | 0,0,3,0,0,0,0,0,0,0,0,0,8,2,0,0,0,0,0,0,7,8,0,0,0,5,3,0,0,6,0,6,0,0,0,0,5,3,0,0,0,0,7,0,0,0,0,0,0,0 | 0,0,7,0,7,0,0,0,0,0,0,0,0,2,6,0,0,0,0,0,3,7,0,4,5,0,0,0,0,0,0,0,5,0,0,0,3,0,8,0,0,0,0,0,0,0,0,2,0,0 | 0,0,0,6,2,0,3,0,2,0,0,7,3,0,0,0,0,3,0,0,0,0,7,0,0,0,2,0,3,0,0,0,0,0,0,0,0,0,0,0,8,0,0,4,0,0,0,0,0,0 | 3,2,0,0,2,0,0,0,0,0,0,7,0,6,0,0,4,0,0,0,0,0,3,0,0,2,0,0,0,4,0,0,8,7,0,0,0,5,0,0,8,7,0,0,3,0,3,7,0,0 | 0,0,0,0,8,0,8,2,0,0,0,0,5,6,4,8,4,0,0,0,0,0,0,0,0,0,0,0,0,0,3,7,0,0,0,0,0,0,0,0,4,0,0,0,0,4,0,4,0,0 | 0,0,0,0,7,4,6,7,0,0,0,0,0,0,0,0,0,0,0,0,3,0,0,0,0,0,0,0,0,0,0,0,0,0,8,0,5,0,0,0,2,5,0,0,0,0,0,4,0,2 | 6,0,0,0,0,0,3,0,0,6,0,0,6,0,0,0,0,0,0,3,0,0,3,0,4,5,8,8,5,0,0,0,0,0,0,0,0,0,8,5,5,3,0,0,0,0,0,0,0,2 | 6,0,0,0,0,0,0,0,4,0,0,0,2,0,0,0,4,0,0,0,0,3,5,0,0,0,3,0,0,4,0,0,0,6,0,4,0,0,2,6,0,0,0,0,0,5,0,6,0,0 | 5,0,0,0,0,0,5,0,0,0,3,8,0,0,0,0,0,0,0,0,0,8,0,4,0,4,5,0,5,8,0,0,0,0,4,0,0,0,8,0,0,8,8,8,0,0,0,0,0,0 | 8,7,0,0,6,0,3,0,0,0,0,0,7,3,3,0,0,0,0,3,0,0,0,0,0,0,0,0,5,0,0,4,8,0,0,0,0,2,2,5,0,0,0,0,0,0,0,2,0,0 | 8,5,0,0,0,0,0,0,4,0,0,0,7,0,4,0,0,0,2,0,0,0,0,7,0,0,0,0,0,0,0,0,6,0,0,0,0,0,3,0,3,0,0,0,0,0,0,0,0,0 | 6,8,0,6,5,0,0,0,0,2,3,0,0,0,0,7,0,0,0,6,0,4,0,0,0,0,5,0,7,0,0,0,0,0,0,6,0,0,6,0,0,0,0,0,0,0,0,0,3,0 | 0,0,0,0,0,0,8,3,0,0,6,0,0,0,0,0,0,5,0,4,8,5,5,0,5,3,0,0,0,0,0,0,0,0,0,0,0,8,0,2,0,0,8,7,2,0,0,0,0,0 | 0,3,0,0,0,6,0,3,0,0,0,0,0,0,0,0,0,0,6,0,3,5,0,0,0,0,2,4,7,0,0,2,0,0,0,0,2,0,0,0,0,4,0,0,0,0,4,0,5,2 | 0,0,0,0,0,0,0,0,0,0,0,0,0,3,0,0,4,0,0,7,0,0,0,2,0,0,0,6,0,4,0,0,6,0,0,0,0,0,0,2,0,0,0,4,0,0,0,0,0,4 | 0,7,0,5,0,2,0,0,6,0,0,3,0,4,7,0,0,5,0,7,3,0,0,0,0,4,0,0,0,0,8,0,0,0,0,0,0,0,2,0,0,0,0,0,0,8,0,0,7,0 | 3,0,0,0,4,0,0,3,0,0,0,0,0,0,0,7,0,0,5,5,0,0,0,0,0,0,0,4,8,7,0,0,0,0,3,0,0,0,0,0,0,0,3,2,0,8,0,0,5,0 | 3,0,0,0,0,0,0,2,0,0,0,0,6,0,0,0,0,5,0,0,0,0,0,0,0,0,0,0,0,0,3,0,0,0,0,0,7,0,0,0,0,5,0,4,0,0,0,0,0,0 | 0,0,3,0,0,4,0,0,4,0,0,0,8,0,0,0,8,0,0,0,0,0,0,0,0,8,0,0,0,0,0,0,0,0,0,0,4,0,0,0,3,0,0,0,0,3,7,0,5,0 | 0,0,0,4,0,0,0,0,3,2,0,0,0,0,2,8,0,0,0,0,0,0,0,0,0,3,0,0,0,0,3,7,4,0,0,3,0,0,0,0,0,0,0,0,0,0,6,0,0,0 | 0,0,2,6,0,0,0,0,0,8,0,0,0,0,2,0,6,0,0,0,0,0,0,2,0,0,0,0,0,0,0,5,2,6,0,0,0,0,0,0,5,0,0,0,5,8,0,4,8,0 | 0,5,0,8,0,0,0,0,0,0,0,0,2,0,7,0,0,0,0,0,0,0,0,7,8,4,0,0,7,0,4,0,0,0,5,0,0,0,6,0,0,0,0,0,0,0,0,4,4,7 | 4,7,0,7,6,0,0,8,0,0,2,0,0,0,8,5,6,0,0,8,3,0,0,0,0,0,3,0,0,0,0,6,2,2,8,0,0,8,0,3,0,8,0,2,0,0,0,0,0,0 | 0,0,0,7,0,0,0,6,0,0,2,6,0,7,0,7,5,0,0,0,0,0,0,0,0,0,0,0,0,5,0,0,0,2,0,0,3,0,0,0,0,4,0,0,7,0,0,0,0,0 | 0,6,0,0,4,0,4,0,0,4,0,0,0,0,2,0,0,0,0,0,6,0,0,8,0,0,6,0,0,6,0,0,0,7,0,0,6,0,0,0,0,0,0,5,8,4,0,0,0,7 | 0,0,0,0,6,0,3,4,0,0,0,0,0,7,3,0,0,0,0,0,0,5,8,3,0,3,0,3,0,0,0,0,6,0,0,0,6,0,0,0,0,0,0,2,0,0,5,7,0,0 | 6,6,8,0,8,5,0,0,6,0,0,0,7,0,0,0,0,0,0,0,0,0,6,0,0,0,0,0,0,4,3,0,0,3,0,7,4,5,0,0,0,0,0,0,4,0,5,8,0,0 | 0,6,0,0,0,7,0,0,0,8,0,0,0,2,0,0,0,0,0,0,8,0,0,0,0,0,0,0,0,5,4,0,0,0,0,0,0,0,2,0,6,0,6,0,0,0,3,0,0,0 | 0,0,0,0,0,0,0,7,0,0,0,0,0,0,2,0,0,0,0,8,0,5,0,0,0,0,0,6,8,0,0,0,0,0,0,0,0,4,0,0,0,0,0,8,3,0,0,2,4,0 | 7,2,0,0,0,6,0,0,0,0,0,0,0,0,0,5,0,0,8,0,2,0,0,0,0,5,0,0,0,0,0,4,5,8,0,7,0,0,2,0,0,0,0,8,0,0,0,0,8,0 | 0,0,0,0,0,0,7,0,0,0,0,0,2,5,0,0,0,0,0,0,0,0,0,0,0,0,3,0,0,0,0,0,0,5,0,8,0,0,0,0,0,0,0,0,8,2,0,0,0,4 | 0,0,4,0,0,0,0,3,5,0,0,2,0,0,0,0,0,0,4,0,6,0,4,0,0,3,0,0,2,2,0,0,0,2,0,8,0,0,0,0,0,0,3,0,0,0,0,0,0,0 | 7,0,0,3,0,3,0,0,0,0,0,0,0,0,0,0,0,0,0,0,0,0,0,0,0,0,0,0,0,0,0,4,0,0,2,8,0,4,5,0,0,0,0,0,0,0,0,0,0,0 | 0,0,0,0,0,0,0,0,0,0,0,0,7,3,0,6,0,0,7,6,3,0,8,0,0,8,0,0,6,0,6,4,0,4,0,0,5,0,0,0,0,5,0,0,0,8,0,0,4,8 | 0,0,0,6,6,8,2,0,0,0,0,0,0,0,3,0,0,0,0,2,2,0,0,0,0,4,0,2,0,7,0,5,0,0,0,0,0,0,0,0,7,0,0,0,8,0,7,0,0,0 | 0,6,0,0,4,4,0,2,0,0,0,0,0,0,0,0,0,0,0,0,0,7,7,0,0,0,5,2,0,0,0,0,0,6,0,0,0,0,0,0,0,7,5,7,0,0,0,0,0,0 | 0,0,0,0,0,0,2,0,3,0,0,0,0,0,0,4,4,5,6,0,0,0,0,7,0,4,0,3,0,0,7,5,2,0,0,0,0,0,0,0,0,0,0,7,0,0,0,0,2,0 | 8,0,8,0,3,0,0,5,0,0,4,5,3,0,7,0,8,0,5,0,0,7,0,0,0,0,0,0,0,0,5,0,0,7,4,0,0,0,0,0,0,3,0,0,0,0,0,0,2,0 | 0,0,0,8,0,0,0,0,0,0,0,6,2,0,0,0,8,0,0,0,0,0,4,0,0,0,0,0,0,0,0,0,0,7,0,0,6,0,0,0,3,0,0,7,0,0,0,0,6,0 | 0,7,7,0,0,0,8,0,0,0,0,0,5,0,0,8,0,7,0,7,6,8,0,7,0,0,0,5,0,0,0,0,6,3,0,4,0,5,5,4,0,5,0,0,0,0,0,6,0,0 | 0,5,0,0,0,0,7,0,2,4,2,0,0,0,0,0,0,0,6,0,0,0,0,2,0,6,0,0,0,0,0,2,0,0,0,0,0,7,8,0,0,0,8,3,4,0,0,0,0,2 | 0,0,0,0,0,4,0,0,8,5,2,0,0,0,0,3,0,0,0,0,0,0,0,5,0,0,0,0,0,0,0,8,0,0,0,4,0,0,5,0,0,0,0,0,0,0,0,5,4,0 | 0,0,2,5,0,6,0,5,0,0,0,0,2,6,0,0,0,7,0,0,0,0,0,8,0,0,0,0,6,0,0,0,0,0,0,0,6,0,0,0,0,0,0,0,6,0,0,0,0,0 | 6,0,0,0,0,0,0,3,0,0,0,7,0,0,0,0,0,0,0,0,0,0,6,0,0,0,3,0,0,0,7,8,0,0,0,4,7,6,4,5,0,0,0,0,0,0,0,0,0,5 | 0,0,0,0,0,0,0,0,8,0,4,0,3,0,0,0,0,0,0,0,0,8,0,2,2,8,0,0,6,0,0,0,0,0,0,0,5,3,5,0,0,3,2,0,3,0,0,0,0,0 |];
